39.0 19.0 0
79.0 19.0 18
41.0 79.0 16
25.0 31.0 22
63.0 93.0 24
33.0 5.0 3
69.0 17.0 19
57.0 73.0 6
53.0 75.0 6
1.0 1.0 6
79.0 73.0 12
59.0 5.0 18
1.0 37.0 16
41.0 31.0 72
23.0 73.0 7
37.0 27.0 16
85.0 93.0 23
93.0 13.0 4
85.0 45.0 22
49.0 91.0 23
55.0 43.0 7
83.0 29.0 11
93.0 49.0 11
87.0 23.0 1
31.0 23.0 22
19.0 97.0 16
41.0 9.0 15
83.0 61.0 7
9.0 7.0 5
13.0 13.0 22
43.0 37.0 9
13.0 61.0 10
71.0 51.0 11
45.0 93.0 9
93.0 55.0 3
5.0 97.0 7
81.0 11.0 15
7.0 53.0 10
7.0 41.0 2
